Route #1: 1 1 32 11 5 49 10 15 44 17 12 46 6 1 
Route #2: 1 22 26 28 3 36 20 29 2 16 38 27 1 
Route #3: 1 48 23 24 14 25 18 47 1 
Route #4: 1 31 8 7 43 13 41 19 42 4 37 1 
Route #5: 1 35 21 50 9 34 30 39 33 45 40 1 

Cost 722.695
Time 0.5409


 * Another infos *

 Iterations: 51 Time: 0.5409 sec - 0.0090 min - 0.0002 horas
0.0000 h 0.0090 min
Problem dimension: 51
